151,828,12,1038,502,340,183,346,17,164,11,501,984,491,492,499,347,817,4,174,165,3,333,27,991,26,820,654,507,656,667,184,815,505,168,1,829,661,832,657,663,508,986,9,2,173,673,676,22,185,351,1004,6,5,978,352,668,176,23,988,981,990,332,345,181,14,982,187,816,678,823,7,653,490,344,665,163,172,182,496,839,19,329,509,493,979,837,8,999,662,331,995,349,1003,334,674,985,343,510,660,20,825,500,504,511,327,670,350,339,675,186,520,16,671,512,179,171,483,652,1075,821,75,489,25,444,826,840,336,297,980,74,1001,822,166,658,666,818,655,819,28,330,1073,169,1037,814,326,328,167,495,494